c 0.010190248489379883 (encode time in sec)
p cnf 67 1048
1 2 3 10 0
1 2 -3 5 0
1 -2 3 5 0
1 -2 -3 6 0
-1 2 3 4 0
-1 2 -3 7 0
-1 -2 3 8 0
-1 -2 -3 9 0
11 12 13 19 0
11 12 -13 15 0
11 -12 13 16 0
11 -12 -13 14 0
-11 12 13 17 0
-11 12 -13 18 0
-11 -12 13 20 0
-11 -12 -13 20 0
21 22 23 24 0
21 22 -23 26 0
21 -22 23 27 0
21 -22 -23 25 0
-21 22 23 28 0
-21 22 -23 29 0
-21 -22 23 31 0
-21 -22 -23 30 0
32 33 34 1 2 3 11 12 13 35 0
32 33 34 1 2 3 11 12 -13 36 0
32 33 34 1 2 3 11 -12 13 35 0
32 33 34 1 2 3 11 -12 -13 35 0
32 33 34 1 2 3 -11 12 13 35 0
32 33 34 1 2 3 -11 12 -13 0
32 33 34 1 2 3 -11 -12 13 35 0
32 33 34 1 2 3 -11 -12 -13 35 0
32 33 34 1 2 -3 11 12 13 35 0
32 33 34 1 2 -3 11 12 -13 36 0
32 33 34 1 2 -3 11 -12 13 0
32 33 34 1 2 -3 11 -12 -13 0
32 33 34 1 2 -3 -11 12 13 0
32 33 34 1 2 -3 -11 12 -13 0
32 33 34 1 2 -3 -11 -12 13 35 0
32 33 34 1 2 -3 -11 -12 -13 35 0
32 33 34 1 -2 3 11 12 13 36 0
32 33 34 1 -2 3 11 12 -13 0
32 33 34 1 -2 3 11 -12 13 35 0
32 33 34 1 -2 3 11 -12 -13 0
32 33 34 1 -2 3 -11 12 13 0
32 33 34 1 -2 3 -11 12 -13 35 0
32 33 34 1 -2 3 -11 -12 13 35 0
32 33 34 1 -2 3 -11 -12 -13 35 0
32 33 34 1 -2 -3 11 12 13 0
32 33 34 1 -2 -3 11 12 -13 0
32 33 34 1 -2 -3 11 -12 13 0
32 33 34 1 -2 -3 11 -12 -13 0
32 33 34 1 -2 -3 -11 12 13 0
32 33 34 1 -2 -3 -11 12 -13 0
32 33 34 1 -2 -3 -11 -12 13 0
32 33 34 1 -2 -3 -11 -12 -13 35 0
32 33 34 -1 2 3 11 12 13 35 0
32 33 34 -1 2 3 11 12 -13 0
32 33 34 -1 2 3 11 -12 13 0
32 33 34 -1 2 3 11 -12 -13 0
32 33 34 -1 2 3 -11 12 13 0
32 33 34 -1 2 3 -11 12 -13 0
32 33 34 -1 2 3 -11 -12 13 35 0
32 33 34 -1 2 3 -11 -12 -13 0
32 33 34 -1 2 -3 11 12 13 35 0
32 33 34 -1 2 -3 11 12 -13 0
32 33 34 -1 2 -3 11 -12 13 0
32 33 34 -1 2 -3 11 -12 -13 0
32 33 34 -1 2 -3 -11 12 13 0
32 33 34 -1 2 -3 -11 12 -13 0
32 33 34 -1 2 -3 -11 -12 13 0
32 33 34 -1 2 -3 -11 -12 -13 0
32 33 34 -1 -2 3 11 12 13 35 0
32 33 34 -1 -2 3 11 12 -13 0
32 33 34 -1 -2 3 11 -12 13 0
32 33 34 -1 -2 3 11 -12 -13 35 0
32 33 34 -1 -2 3 -11 12 13 0
32 33 34 -1 -2 3 -11 12 -13 0
32 33 34 -1 -2 3 -11 -12 13 35 0
32 33 34 -1 -2 3 -11 -12 -13 35 0
32 33 34 -1 -2 -3 11 12 13 0
32 33 34 -1 -2 -3 11 12 -13 35 0
32 33 34 -1 -2 -3 11 -12 13 0
32 33 34 -1 -2 -3 11 -12 -13 35 0
32 33 34 -1 -2 -3 -11 12 13 0
32 33 34 -1 -2 -3 -11 12 -13 35 0
32 33 34 -1 -2 -3 -11 -12 13 35 0
32 33 34 -1 -2 -3 -11 -12 -13 35 0
32 33 -34 1 2 3 11 12 13 35 0
32 33 -34 1 2 3 11 12 -13 0
32 33 -34 1 2 3 11 -12 13 35 0
32 33 -34 1 2 3 11 -12 -13 35 0
32 33 -34 1 2 3 -11 12 13 35 0
32 33 -34 1 2 3 -11 12 -13 0
32 33 -34 1 2 3 -11 -12 13 35 0
32 33 -34 1 2 3 -11 -12 -13 35 0
32 33 -34 1 2 -3 11 12 13 35 0
32 33 -34 1 2 -3 11 12 -13 0
32 33 -34 1 2 -3 11 -12 13 36 0
32 33 -34 1 2 -3 11 -12 -13 36 0
32 33 -34 1 2 -3 -11 12 13 0
32 33 -34 1 2 -3 -11 12 -13 0
32 33 -34 1 2 -3 -11 -12 13 35 0
32 33 -34 1 2 -3 -11 -12 -13 35 0
32 33 -34 1 -2 3 11 12 13 0
32 33 -34 1 -2 3 11 12 -13 36 0
32 33 -34 1 -2 3 11 -12 13 35 0
32 33 -34 1 -2 3 11 -12 -13 0
32 33 -34 1 -2 3 -11 12 13 0
32 33 -34 1 -2 3 -11 12 -13 35 0
32 33 -34 1 -2 3 -11 -12 13 35 0
32 33 -34 1 -2 3 -11 -12 -13 35 0
32 33 -34 1 -2 -3 11 12 13 36 0
32 33 -34 1 -2 -3 11 12 -13 36 0
32 33 -34 1 -2 -3 11 -12 13 0
32 33 -34 1 -2 -3 11 -12 -13 0
32 33 -34 1 -2 -3 -11 12 13 0
32 33 -34 1 -2 -3 -11 12 -13 0
32 33 -34 1 -2 -3 -11 -12 13 0
32 33 -34 1 -2 -3 -11 -12 -13 35 0
32 33 -34 -1 2 3 11 12 13 35 0
32 33 -34 -1 2 3 11 12 -13 36 0
32 33 -34 -1 2 3 11 -12 13 0
32 33 -34 -1 2 3 11 -12 -13 0
32 33 -34 -1 2 3 -11 12 13 0
32 33 -34 -1 2 3 -11 12 -13 0
32 33 -34 -1 2 3 -11 -12 13 35 0
32 33 -34 -1 2 3 -11 -12 -13 0
32 33 -34 -1 2 -3 11 12 13 35 0
32 33 -34 -1 2 -3 11 12 -13 0
32 33 -34 -1 2 -3 11 -12 13 0
32 33 -34 -1 2 -3 11 -12 -13 0
32 33 -34 -1 2 -3 -11 12 13 0
32 33 -34 -1 2 -3 -11 12 -13 0
32 33 -34 -1 2 -3 -11 -12 13 0
32 33 -34 -1 2 -3 -11 -12 -13 0
32 33 -34 -1 -2 3 11 12 13 35 0
32 33 -34 -1 -2 3 11 12 -13 0
32 33 -34 -1 -2 3 11 -12 13 0
32 33 -34 -1 -2 3 11 -12 -13 35 0
32 33 -34 -1 -2 3 -11 12 13 0
32 33 -34 -1 -2 3 -11 12 -13 0
32 33 -34 -1 -2 3 -11 -12 13 35 0
32 33 -34 -1 -2 3 -11 -12 -13 35 0
32 33 -34 -1 -2 -3 11 12 13 0
32 33 -34 -1 -2 -3 11 12 -13 35 0
32 33 -34 -1 -2 -3 11 -12 13 0
32 33 -34 -1 -2 -3 11 -12 -13 35 0
32 33 -34 -1 -2 -3 -11 12 13 0
32 33 -34 -1 -2 -3 -11 12 -13 35 0
32 33 -34 -1 -2 -3 -11 -12 13 35 0
32 33 -34 -1 -2 -3 -11 -12 -13 35 0
32 -33 34 1 2 3 11 12 13 35 0
32 -33 34 1 2 3 11 12 -13 0
32 -33 34 1 2 3 11 -12 13 35 0
32 -33 34 1 2 3 11 -12 -13 35 0
32 -33 34 1 2 3 -11 12 13 35 0
32 -33 34 1 2 3 -11 12 -13 0
32 -33 34 1 2 3 -11 -12 13 35 0
32 -33 34 1 2 3 -11 -12 -13 35 0
32 -33 34 1 2 -3 11 12 13 35 0
32 -33 34 1 2 -3 11 12 -13 0
32 -33 34 1 2 -3 11 -12 13 0
32 -33 34 1 2 -3 11 -12 -13 0
32 -33 34 1 2 -3 -11 12 13 0
32 -33 34 1 2 -3 -11 12 -13 0
32 -33 34 1 2 -3 -11 -12 13 35 0
32 -33 34 1 2 -3 -11 -12 -13 35 0
32 -33 34 1 -2 3 11 12 13 0
32 -33 34 1 -2 3 11 12 -13 0
32 -33 34 1 -2 3 11 -12 13 35 0
32 -33 34 1 -2 3 11 -12 -13 39 0
32 -33 34 1 -2 3 -11 12 13 0
32 -33 34 1 -2 3 -11 12 -13 35 0
32 -33 34 1 -2 3 -11 -12 13 35 0
32 -33 34 1 -2 3 -11 -12 -13 35 0
32 -33 34 1 -2 -3 11 12 13 0
32 -33 34 1 -2 -3 11 12 -13 0
32 -33 34 1 -2 -3 11 -12 13 36 0
32 -33 34 1 -2 -3 11 -12 -13 37 0
32 -33 34 1 -2 -3 -11 12 13 0
32 -33 34 1 -2 -3 -11 12 -13 0
32 -33 34 1 -2 -3 -11 -12 13 0
32 -33 34 1 -2 -3 -11 -12 -13 35 0
32 -33 34 -1 2 3 11 12 13 35 0
32 -33 34 -1 2 3 11 12 -13 0
32 -33 34 -1 2 3 11 -12 13 39 0
32 -33 34 -1 2 3 11 -12 -13 37 0
32 -33 34 -1 2 3 -11 12 13 0
32 -33 34 -1 2 3 -11 12 -13 0
32 -33 34 -1 2 3 -11 -12 13 35 0
32 -33 34 -1 2 3 -11 -12 -13 0
32 -33 34 -1 2 -3 11 12 13 35 0
32 -33 34 -1 2 -3 11 12 -13 0
32 -33 34 -1 2 -3 11 -12 13 0
32 -33 34 -1 2 -3 11 -12 -13 0
32 -33 34 -1 2 -3 -11 12 13 0
32 -33 34 -1 2 -3 -11 12 -13 0
32 -33 34 -1 2 -3 -11 -12 13 0
32 -33 34 -1 2 -3 -11 -12 -13 0
32 -33 34 -1 -2 3 11 12 13 35 0
32 -33 34 -1 -2 3 11 12 -13 0
32 -33 34 -1 -2 3 11 -12 13 0
32 -33 34 -1 -2 3 11 -12 -13 35 0
32 -33 34 -1 -2 3 -11 12 13 0
32 -33 34 -1 -2 3 -11 12 -13 0
32 -33 34 -1 -2 3 -11 -12 13 35 0
32 -33 34 -1 -2 3 -11 -12 -13 35 0
32 -33 34 -1 -2 -3 11 12 13 36 0
32 -33 34 -1 -2 -3 11 12 -13 35 0
32 -33 34 -1 -2 -3 11 -12 13 0
32 -33 34 -1 -2 -3 11 -12 -13 35 0
32 -33 34 -1 -2 -3 -11 12 13 0
32 -33 34 -1 -2 -3 -11 12 -13 35 0
32 -33 34 -1 -2 -3 -11 -12 13 35 0
32 -33 34 -1 -2 -3 -11 -12 -13 35 0
32 -33 -34 1 2 3 11 12 13 35 0
32 -33 -34 1 2 3 11 12 -13 0
32 -33 -34 1 2 3 11 -12 13 35 0
32 -33 -34 1 2 3 11 -12 -13 35 0
32 -33 -34 1 2 3 -11 12 13 35 0
32 -33 -34 1 2 3 -11 12 -13 0
32 -33 -34 1 2 3 -11 -12 13 35 0
32 -33 -34 1 2 3 -11 -12 -13 35 0
32 -33 -34 1 2 -3 11 12 13 35 0
32 -33 -34 1 2 -3 11 12 -13 0
32 -33 -34 1 2 -3 11 -12 13 0
32 -33 -34 1 2 -3 11 -12 -13 0
32 -33 -34 1 2 -3 -11 12 13 36 0
32 -33 -34 1 2 -3 -11 12 -13 40 0
32 -33 -34 1 2 -3 -11 -12 13 35 0
32 -33 -34 1 2 -3 -11 -12 -13 35 0
32 -33 -34 1 -2 3 11 12 13 0
32 -33 -34 1 -2 3 11 12 -13 0
32 -33 -34 1 -2 3 11 -12 13 35 0
32 -33 -34 1 -2 3 11 -12 -13 39 0
32 -33 -34 1 -2 3 -11 12 13 36 0
32 -33 -34 1 -2 3 -11 12 -13 35 0
32 -33 -34 1 -2 3 -11 -12 13 35 0
32 -33 -34 1 -2 3 -11 -12 -13 35 0
32 -33 -34 1 -2 -3 11 12 13 0
32 -33 -34 1 -2 -3 11 12 -13 0
32 -33 -34 1 -2 -3 11 -12 13 0
32 -33 -34 1 -2 -3 11 -12 -13 41 0
32 -33 -34 1 -2 -3 -11 12 13 39 0
32 -33 -34 1 -2 -3 -11 12 -13 0
32 -33 -34 1 -2 -3 -11 -12 13 0
32 -33 -34 1 -2 -3 -11 -12 -13 35 0
32 -33 -34 -1 2 3 11 12 13 35 0
32 -33 -34 -1 2 3 11 12 -13 0
32 -33 -34 -1 2 3 11 -12 13 39 0
32 -33 -34 -1 2 3 11 -12 -13 42 0
32 -33 -34 -1 2 3 -11 12 13 0
32 -33 -34 -1 2 3 -11 12 -13 0
32 -33 -34 -1 2 3 -11 -12 13 35 0
32 -33 -34 -1 2 3 -11 -12 -13 0
32 -33 -34 -1 2 -3 11 12 13 35 0
32 -33 -34 -1 2 -3 11 12 -13 36 0
32 -33 -34 -1 2 -3 11 -12 13 36 0
32 -33 -34 -1 2 -3 11 -12 -13 0
32 -33 -34 -1 2 -3 -11 12 13 0
32 -33 -34 -1 2 -3 -11 12 -13 0
32 -33 -34 -1 2 -3 -11 -12 13 0
32 -33 -34 -1 2 -3 -11 -12 -13 0
32 -33 -34 -1 -2 3 11 12 13 35 0
32 -33 -34 -1 -2 3 11 12 -13 36 0
32 -33 -34 -1 -2 3 11 -12 13 36 0
32 -33 -34 -1 -2 3 11 -12 -13 35 0
32 -33 -34 -1 -2 3 -11 12 13 0
32 -33 -34 -1 -2 3 -11 12 -13 0
32 -33 -34 -1 -2 3 -11 -12 13 35 0
32 -33 -34 -1 -2 3 -11 -12 -13 35 0
32 -33 -34 -1 -2 -3 11 12 13 0
32 -33 -34 -1 -2 -3 11 12 -13 35 0
32 -33 -34 -1 -2 -3 11 -12 13 39 0
32 -33 -34 -1 -2 -3 11 -12 -13 35 0
32 -33 -34 -1 -2 -3 -11 12 13 0
32 -33 -34 -1 -2 -3 -11 12 -13 35 0
32 -33 -34 -1 -2 -3 -11 -12 13 35 0
32 -33 -34 -1 -2 -3 -11 -12 -13 35 0
-32 33 34 1 2 3 11 12 13 35 0
-32 33 34 1 2 3 11 12 -13 0
-32 33 34 1 2 3 11 -12 13 35 0
-32 33 34 1 2 3 11 -12 -13 35 0
-32 33 34 1 2 3 -11 12 13 35 0
-32 33 34 1 2 3 -11 12 -13 36 0
-32 33 34 1 2 3 -11 -12 13 35 0
-32 33 34 1 2 3 -11 -12 -13 35 0
-32 33 34 1 2 -3 11 12 13 35 0
-32 33 34 1 2 -3 11 12 -13 0
-32 33 34 1 2 -3 11 -12 13 0
-32 33 34 1 2 -3 11 -12 -13 0
-32 33 34 1 2 -3 -11 12 13 0
-32 33 34 1 2 -3 -11 12 -13 43 0
-32 33 34 1 2 -3 -11 -12 13 35 0
-32 33 34 1 2 -3 -11 -12 -13 35 0
-32 33 34 1 -2 3 11 12 13 0
-32 33 34 1 -2 3 11 12 -13 0
-32 33 34 1 -2 3 11 -12 13 35 0
-32 33 34 1 -2 3 11 -12 -13 0
-32 33 34 1 -2 3 -11 12 13 0
-32 33 34 1 -2 3 -11 12 -13 35 0
-32 33 34 1 -2 3 -11 -12 13 35 0
-32 33 34 1 -2 3 -11 -12 -13 35 0
-32 33 34 1 -2 -3 11 12 13 0
-32 33 34 1 -2 -3 11 12 -13 0
-32 33 34 1 -2 -3 11 -12 13 0
-32 33 34 1 -2 -3 11 -12 -13 44 0
-32 33 34 1 -2 -3 -11 12 13 45 0
-32 33 34 1 -2 -3 -11 12 -13 46 0
-32 33 34 1 -2 -3 -11 -12 13 0
-32 33 34 1 -2 -3 -11 -12 -13 35 0
-32 33 34 -1 2 3 11 12 13 35 0
-32 33 34 -1 2 3 11 12 -13 0
-32 33 34 -1 2 3 11 -12 13 0
-32 33 34 -1 2 3 11 -12 -13 49 0
-32 33 34 -1 2 3 -11 12 13 50 0
-32 33 34 -1 2 3 -11 12 -13 39 0
-32 33 34 -1 2 3 -11 -12 13 35 0
-32 33 34 -1 2 3 -11 -12 -13 0
-32 33 34 -1 2 -3 11 12 13 35 0
-32 33 34 -1 2 -3 11 12 -13 0
-32 33 34 -1 2 -3 11 -12 13 0
-32 33 34 -1 2 -3 11 -12 -13 36 0
-32 33 34 -1 2 -3 -11 12 13 0
-32 33 34 -1 2 -3 -11 12 -13 39 0
-32 33 34 -1 2 -3 -11 -12 13 0
-32 33 34 -1 2 -3 -11 -12 -13 0
-32 33 34 -1 -2 3 11 12 13 35 0
-32 33 34 -1 -2 3 11 12 -13 0
-32 33 34 -1 -2 3 11 -12 13 0
-32 33 34 -1 -2 3 11 -12 -13 35 0
-32 33 34 -1 -2 3 -11 12 13 47 0
-32 33 34 -1 -2 3 -11 12 -13 0
-32 33 34 -1 -2 3 -11 -12 13 35 0
-32 33 34 -1 -2 3 -11 -12 -13 35 0
-32 33 34 -1 -2 -3 11 12 13 0
-32 33 34 -1 -2 -3 11 12 -13 35 0
-32 33 34 -1 -2 -3 11 -12 13 0
-32 33 34 -1 -2 -3 11 -12 -13 35 0
-32 33 34 -1 -2 -3 -11 12 13 0
-32 33 34 -1 -2 -3 -11 12 -13 35 0
-32 33 34 -1 -2 -3 -11 -12 13 35 0
-32 33 34 -1 -2 -3 -11 -12 -13 35 0
-32 33 -34 1 2 3 11 12 13 35 0
-32 33 -34 1 2 3 11 12 -13 0
-32 33 -34 1 2 3 11 -12 13 35 0
-32 33 -34 1 2 3 11 -12 -13 35 0
-32 33 -34 1 2 3 -11 12 13 35 0
-32 33 -34 1 2 3 -11 12 -13 0
-32 33 -34 1 2 3 -11 -12 13 35 0
-32 33 -34 1 2 3 -11 -12 -13 35 0
-32 33 -34 1 2 -3 11 12 13 35 0
-32 33 -34 1 2 -3 11 12 -13 0
-32 33 -34 1 2 -3 11 -12 13 0
-32 33 -34 1 2 -3 11 -12 -13 0
-32 33 -34 1 2 -3 -11 12 13 0
-32 33 -34 1 2 -3 -11 12 -13 0
-32 33 -34 1 2 -3 -11 -12 13 35 0
-32 33 -34 1 2 -3 -11 -12 -13 35 0
-32 33 -34 1 -2 3 11 12 13 0
-32 33 -34 1 -2 3 11 12 -13 0
-32 33 -34 1 -2 3 11 -12 13 35 0
-32 33 -34 1 -2 3 11 -12 -13 0
-32 33 -34 1 -2 3 -11 12 13 0
-32 33 -34 1 -2 3 -11 12 -13 35 0
-32 33 -34 1 -2 3 -11 -12 13 35 0
-32 33 -34 1 -2 3 -11 -12 -13 35 0
-32 33 -34 1 -2 -3 11 12 13 0
-32 33 -34 1 -2 -3 11 12 -13 0
-32 33 -34 1 -2 -3 11 -12 13 0
-32 33 -34 1 -2 -3 11 -12 -13 0
-32 33 -34 1 -2 -3 -11 12 13 35 0
-32 33 -34 1 -2 -3 -11 12 -13 47 0
-32 33 -34 1 -2 -3 -11 -12 13 36 0
-32 33 -34 1 -2 -3 -11 -12 -13 35 0
-32 33 -34 -1 2 3 11 12 13 35 0
-32 33 -34 -1 2 3 11 12 -13 0
-32 33 -34 -1 2 3 11 -12 13 0
-32 33 -34 -1 2 3 11 -12 -13 0
-32 33 -34 -1 2 3 -11 12 13 48 0
-32 33 -34 -1 2 3 -11 12 -13 39 0
-32 33 -34 -1 2 3 -11 -12 13 35 0
-32 33 -34 -1 2 3 -11 -12 -13 0
-32 33 -34 -1 2 -3 11 12 13 35 0
-32 33 -34 -1 2 -3 11 12 -13 0
-32 33 -34 -1 2 -3 11 -12 13 0
-32 33 -34 -1 2 -3 11 -12 -13 0
-32 33 -34 -1 2 -3 -11 12 13 36 0
-32 33 -34 -1 2 -3 -11 12 -13 39 0
-32 33 -34 -1 2 -3 -11 -12 13 0
-32 33 -34 -1 2 -3 -11 -12 -13 0
-32 33 -34 -1 -2 3 11 12 13 35 0
-32 33 -34 -1 -2 3 11 12 -13 0
-32 33 -34 -1 -2 3 11 -12 13 0
-32 33 -34 -1 -2 3 11 -12 -13 35 0
-32 33 -34 -1 -2 3 -11 12 13 39 0
-32 33 -34 -1 -2 3 -11 12 -13 36 0
-32 33 -34 -1 -2 3 -11 -12 13 35 0
-32 33 -34 -1 -2 3 -11 -12 -13 35 0
-32 33 -34 -1 -2 -3 11 12 13 0
-32 33 -34 -1 -2 -3 11 12 -13 35 0
-32 33 -34 -1 -2 -3 11 -12 13 39 0
-32 33 -34 -1 -2 -3 11 -12 -13 35 0
-32 33 -34 -1 -2 -3 -11 12 13 36 0
-32 33 -34 -1 -2 -3 -11 12 -13 35 0
-32 33 -34 -1 -2 -3 -11 -12 13 35 0
-32 33 -34 -1 -2 -3 -11 -12 -13 35 0
-32 -33 34 1 2 3 11 12 13 35 0
-32 -33 34 1 2 3 11 12 -13 0
-32 -33 34 1 2 3 11 -12 13 35 0
-32 -33 34 1 2 3 11 -12 -13 35 0
-32 -33 34 1 2 3 -11 12 13 35 0
-32 -33 34 1 2 3 -11 12 -13 0
-32 -33 34 1 2 3 -11 -12 13 35 0
-32 -33 34 1 2 3 -11 -12 -13 35 0
-32 -33 34 1 2 -3 11 12 13 35 0
-32 -33 34 1 2 -3 11 12 -13 0
-32 -33 34 1 2 -3 11 -12 13 0
-32 -33 34 1 2 -3 11 -12 -13 0
-32 -33 34 1 2 -3 -11 12 13 0
-32 -33 34 1 2 -3 -11 12 -13 0
-32 -33 34 1 2 -3 -11 -12 13 35 0
-32 -33 34 1 2 -3 -11 -12 -13 35 0
-32 -33 34 1 -2 3 11 12 13 0
-32 -33 34 1 -2 3 11 12 -13 0
-32 -33 34 1 -2 3 11 -12 13 35 0
-32 -33 34 1 -2 3 11 -12 -13 0
-32 -33 34 1 -2 3 -11 12 13 0
-32 -33 34 1 -2 3 -11 12 -13 35 0
-32 -33 34 1 -2 3 -11 -12 13 35 0
-32 -33 34 1 -2 3 -11 -12 -13 35 0
-32 -33 34 1 -2 -3 11 12 13 0
-32 -33 34 1 -2 -3 11 12 -13 0
-32 -33 34 1 -2 -3 11 -12 13 0
-32 -33 34 1 -2 -3 11 -12 -13 0
-32 -33 34 1 -2 -3 -11 12 13 0
-32 -33 34 1 -2 -3 -11 12 -13 0
-32 -33 34 1 -2 -3 -11 -12 13 0
-32 -33 34 1 -2 -3 -11 -12 -13 35 0
-32 -33 34 -1 2 3 11 12 13 35 0
-32 -33 34 -1 2 3 11 12 -13 0
-32 -33 34 -1 2 3 11 -12 13 0
-32 -33 34 -1 2 3 11 -12 -13 0
-32 -33 34 -1 2 3 -11 12 13 0
-32 -33 34 -1 2 3 -11 12 -13 0
-32 -33 34 -1 2 3 -11 -12 13 35 0
-32 -33 34 -1 2 3 -11 -12 -13 0
-32 -33 34 -1 2 -3 11 12 13 35 0
-32 -33 34 -1 2 -3 11 12 -13 0
-32 -33 34 -1 2 -3 11 -12 13 0
-32 -33 34 -1 2 -3 11 -12 -13 0
-32 -33 34 -1 2 -3 -11 12 13 0
-32 -33 34 -1 2 -3 -11 12 -13 0
-32 -33 34 -1 2 -3 -11 -12 13 36 0
-32 -33 34 -1 2 -3 -11 -12 -13 0
-32 -33 34 -1 -2 3 11 12 13 35 0
-32 -33 34 -1 -2 3 11 12 -13 0
-32 -33 34 -1 -2 3 11 -12 13 0
-32 -33 34 -1 -2 3 11 -12 -13 35 0
-32 -33 34 -1 -2 3 -11 12 13 47 0
-32 -33 34 -1 -2 3 -11 12 -13 0
-32 -33 34 -1 -2 3 -11 -12 13 35 0
-32 -33 34 -1 -2 3 -11 -12 -13 35 0
-32 -33 34 -1 -2 -3 11 12 13 0
-32 -33 34 -1 -2 -3 11 12 -13 35 0
-32 -33 34 -1 -2 -3 11 -12 13 0
-32 -33 34 -1 -2 -3 11 -12 -13 35 0
-32 -33 34 -1 -2 -3 -11 12 13 0
-32 -33 34 -1 -2 -3 -11 12 -13 35 0
-32 -33 34 -1 -2 -3 -11 -12 13 35 0
-32 -33 34 -1 -2 -3 -11 -12 -13 35 0
-32 -33 -34 1 2 3 11 12 13 35 0
-32 -33 -34 1 2 3 11 12 -13 0
-32 -33 -34 1 2 3 11 -12 13 35 0
-32 -33 -34 1 2 3 11 -12 -13 35 0
-32 -33 -34 1 2 3 -11 12 13 35 0
-32 -33 -34 1 2 3 -11 12 -13 0
-32 -33 -34 1 2 3 -11 -12 13 35 0
-32 -33 -34 1 2 3 -11 -12 -13 35 0
-32 -33 -34 1 2 -3 11 12 13 35 0
-32 -33 -34 1 2 -3 11 12 -13 0
-32 -33 -34 1 2 -3 11 -12 13 0
-32 -33 -34 1 2 -3 11 -12 -13 0
-32 -33 -34 1 2 -3 -11 12 13 0
-32 -33 -34 1 2 -3 -11 12 -13 0
-32 -33 -34 1 2 -3 -11 -12 13 35 0
-32 -33 -34 1 2 -3 -11 -12 -13 35 0
-32 -33 -34 1 -2 3 11 12 13 0
-32 -33 -34 1 -2 3 11 12 -13 0
-32 -33 -34 1 -2 3 11 -12 13 35 0
-32 -33 -34 1 -2 3 11 -12 -13 0
-32 -33 -34 1 -2 3 -11 12 13 0
-32 -33 -34 1 -2 3 -11 12 -13 35 0
-32 -33 -34 1 -2 3 -11 -12 13 35 0
-32 -33 -34 1 -2 3 -11 -12 -13 35 0
-32 -33 -34 1 -2 -3 11 12 13 0
-32 -33 -34 1 -2 -3 11 12 -13 0
-32 -33 -34 1 -2 -3 11 -12 13 0
-32 -33 -34 1 -2 -3 11 -12 -13 0
-32 -33 -34 1 -2 -3 -11 12 13 0
-32 -33 -34 1 -2 -3 -11 12 -13 0
-32 -33 -34 1 -2 -3 -11 -12 13 0
-32 -33 -34 1 -2 -3 -11 -12 -13 35 0
-32 -33 -34 -1 2 3 11 12 13 35 0
-32 -33 -34 -1 2 3 11 12 -13 0
-32 -33 -34 -1 2 3 11 -12 13 0
-32 -33 -34 -1 2 3 11 -12 -13 0
-32 -33 -34 -1 2 3 -11 12 13 0
-32 -33 -34 -1 2 3 -11 12 -13 0
-32 -33 -34 -1 2 3 -11 -12 13 35 0
-32 -33 -34 -1 2 3 -11 -12 -13 36 0
-32 -33 -34 -1 2 -3 11 12 13 35 0
-32 -33 -34 -1 2 -3 11 12 -13 0
-32 -33 -34 -1 2 -3 11 -12 13 0
-32 -33 -34 -1 2 -3 11 -12 -13 0
-32 -33 -34 -1 2 -3 -11 12 13 0
-32 -33 -34 -1 2 -3 -11 12 -13 0
-32 -33 -34 -1 2 -3 -11 -12 13 0
-32 -33 -34 -1 2 -3 -11 -12 -13 36 0
-32 -33 -34 -1 -2 3 11 12 13 35 0
-32 -33 -34 -1 -2 3 11 12 -13 0
-32 -33 -34 -1 -2 3 11 -12 13 0
-32 -33 -34 -1 -2 3 11 -12 -13 35 0
-32 -33 -34 -1 -2 3 -11 12 13 0
-32 -33 -34 -1 -2 3 -11 12 -13 0
-32 -33 -34 -1 -2 3 -11 -12 13 35 0
-32 -33 -34 -1 -2 3 -11 -12 -13 35 0
-32 -33 -34 -1 -2 -3 11 12 13 0
-32 -33 -34 -1 -2 -3 11 12 -13 35 0
-32 -33 -34 -1 -2 -3 11 -12 13 0
-32 -33 -34 -1 -2 -3 11 -12 -13 35 0
-32 -33 -34 -1 -2 -3 -11 12 13 0
-32 -33 -34 -1 -2 -3 -11 12 -13 35 0
-32 -33 -34 -1 -2 -3 -11 -12 13 35 0
-32 -33 -34 -1 -2 -3 -11 -12 -13 35 0
51 52 53 21 22 23 32 33 34 54 0
51 52 53 21 22 23 32 33 -34 54 0
51 52 53 21 22 23 32 -33 34 54 0
51 52 53 21 22 23 32 -33 -34 0
51 52 53 21 22 23 -32 33 34 0
51 52 53 21 22 23 -32 33 -34 54 0
51 52 53 21 22 23 -32 -33 34 54 0
51 52 53 21 22 23 -32 -33 -34 54 0
51 52 53 21 22 -23 32 33 34 54 0
51 52 53 21 22 -23 32 33 -34 57 0
51 52 53 21 22 -23 32 -33 34 0
51 52 53 21 22 -23 32 -33 -34 0
51 52 53 21 22 -23 -32 33 34 0
51 52 53 21 22 -23 -32 33 -34 0
51 52 53 21 22 -23 -32 -33 34 54 0
51 52 53 21 22 -23 -32 -33 -34 54 0
51 52 53 21 -22 23 32 33 34 57 0
51 52 53 21 -22 23 32 33 -34 0
51 52 53 21 -22 23 32 -33 34 0
51 52 53 21 -22 23 32 -33 -34 0
51 52 53 21 -22 23 -32 33 34 0
51 52 53 21 -22 23 -32 33 -34 0
51 52 53 21 -22 23 -32 -33 34 54 0
51 52 53 21 -22 23 -32 -33 -34 0
51 52 53 21 -22 -23 32 33 34 57 0
51 52 53 21 -22 -23 32 33 -34 0
51 52 53 21 -22 -23 32 -33 34 0
51 52 53 21 -22 -23 32 -33 -34 0
51 52 53 21 -22 -23 -32 33 34 0
51 52 53 21 -22 -23 -32 33 -34 0
51 52 53 21 -22 -23 -32 -33 34 0
51 52 53 21 -22 -23 -32 -33 -34 54 0
51 52 53 -21 22 23 32 33 34 54 0
51 52 53 -21 22 23 32 33 -34 0
51 52 53 -21 22 23 32 -33 34 0
51 52 53 -21 22 23 32 -33 -34 0
51 52 53 -21 22 23 -32 33 34 0
51 52 53 -21 22 23 -32 33 -34 0
51 52 53 -21 22 23 -32 -33 34 54 0
51 52 53 -21 22 23 -32 -33 -34 54 0
51 52 53 -21 22 -23 32 33 34 54 0
51 52 53 -21 22 -23 32 33 -34 0
51 52 53 -21 22 -23 32 -33 34 0
51 52 53 -21 22 -23 32 -33 -34 0
51 52 53 -21 22 -23 -32 33 34 0
51 52 53 -21 22 -23 -32 33 -34 0
51 52 53 -21 22 -23 -32 -33 34 0
51 52 53 -21 22 -23 -32 -33 -34 0
51 52 53 -21 -22 23 32 33 34 54 0
51 52 53 -21 -22 23 32 33 -34 0
51 52 53 -21 -22 23 32 -33 34 0
51 52 53 -21 -22 23 32 -33 -34 54 0
51 52 53 -21 -22 23 -32 33 34 0
51 52 53 -21 -22 23 -32 33 -34 54 0
51 52 53 -21 -22 23 -32 -33 34 54 0
51 52 53 -21 -22 23 -32 -33 -34 54 0
51 52 53 -21 -22 -23 32 33 34 54 0
51 52 53 -21 -22 -23 32 33 -34 54 0
51 52 53 -21 -22 -23 32 -33 34 54 0
51 52 53 -21 -22 -23 32 -33 -34 54 0
51 52 53 -21 -22 -23 -32 33 34 0
51 52 53 -21 -22 -23 -32 33 -34 54 0
51 52 53 -21 -22 -23 -32 -33 34 54 0
51 52 53 -21 -22 -23 -32 -33 -34 54 0
51 52 -53 21 22 23 32 33 34 54 0
51 52 -53 21 22 23 32 33 -34 54 0
51 52 -53 21 22 23 32 -33 34 54 0
51 52 -53 21 22 23 32 -33 -34 0
51 52 -53 21 22 23 -32 33 34 0
51 52 -53 21 22 23 -32 33 -34 54 0
51 52 -53 21 22 23 -32 -33 34 54 0
51 52 -53 21 22 23 -32 -33 -34 54 0
51 52 -53 21 22 -23 32 33 34 54 0
51 52 -53 21 22 -23 32 33 -34 0
51 52 -53 21 22 -23 32 -33 34 0
51 52 -53 21 22 -23 32 -33 -34 0
51 52 -53 21 22 -23 -32 33 34 0
51 52 -53 21 22 -23 -32 33 -34 0
51 52 -53 21 22 -23 -32 -33 34 54 0
51 52 -53 21 22 -23 -32 -33 -34 54 0
51 52 -53 21 -22 23 32 33 34 0
51 52 -53 21 -22 23 32 33 -34 57 0
51 52 -53 21 -22 23 32 -33 34 0
51 52 -53 21 -22 23 32 -33 -34 0
51 52 -53 21 -22 23 -32 33 34 0
51 52 -53 21 -22 23 -32 33 -34 0
51 52 -53 21 -22 23 -32 -33 34 54 0
51 52 -53 21 -22 23 -32 -33 -34 0
51 52 -53 21 -22 -23 32 33 34 0
51 52 -53 21 -22 -23 32 33 -34 57 0
51 52 -53 21 -22 -23 32 -33 34 0
51 52 -53 21 -22 -23 32 -33 -34 0
51 52 -53 21 -22 -23 -32 33 34 0
51 52 -53 21 -22 -23 -32 33 -34 0
51 52 -53 21 -22 -23 -32 -33 34 0
51 52 -53 21 -22 -23 -32 -33 -34 54 0
51 52 -53 -21 22 23 32 33 34 54 0
51 52 -53 -21 22 23 32 33 -34 57 0
51 52 -53 -21 22 23 32 -33 34 0
51 52 -53 -21 22 23 32 -33 -34 0
51 52 -53 -21 22 23 -32 33 34 0
51 52 -53 -21 22 23 -32 33 -34 0
51 52 -53 -21 22 23 -32 -33 34 54 0
51 52 -53 -21 22 23 -32 -33 -34 54 0
51 52 -53 -21 22 -23 32 33 34 54 0
51 52 -53 -21 22 -23 32 33 -34 0
51 52 -53 -21 22 -23 32 -33 34 0
51 52 -53 -21 22 -23 32 -33 -34 0
51 52 -53 -21 22 -23 -32 33 34 0
51 52 -53 -21 22 -23 -32 33 -34 0
51 52 -53 -21 22 -23 -32 -33 34 0
51 52 -53 -21 22 -23 -32 -33 -34 0
51 52 -53 -21 -22 23 32 33 34 54 0
51 52 -53 -21 -22 23 32 33 -34 0
51 52 -53 -21 -22 23 32 -33 34 0
51 52 -53 -21 -22 23 32 -33 -34 54 0
51 52 -53 -21 -22 23 -32 33 34 0
51 52 -53 -21 -22 23 -32 33 -34 54 0
51 52 -53 -21 -22 23 -32 -33 34 54 0
51 52 -53 -21 -22 23 -32 -33 -34 54 0
51 52 -53 -21 -22 -23 32 33 34 54 0
51 52 -53 -21 -22 -23 32 33 -34 54 0
51 52 -53 -21 -22 -23 32 -33 34 54 0
51 52 -53 -21 -22 -23 32 -33 -34 54 0
51 52 -53 -21 -22 -23 -32 33 34 0
51 52 -53 -21 -22 -23 -32 33 -34 54 0
51 52 -53 -21 -22 -23 -32 -33 34 54 0
51 52 -53 -21 -22 -23 -32 -33 -34 54 0
51 -52 53 21 22 23 32 33 34 54 0
51 -52 53 21 22 23 32 33 -34 54 0
51 -52 53 21 22 23 32 -33 34 54 0
51 -52 53 21 22 23 32 -33 -34 57 0
51 -52 53 21 22 23 -32 33 34 0
51 -52 53 21 22 23 -32 33 -34 54 0
51 -52 53 21 22 23 -32 -33 34 54 0
51 -52 53 21 22 23 -32 -33 -34 54 0
51 -52 53 21 22 -23 32 33 34 54 0
51 -52 53 21 22 -23 32 33 -34 0
51 -52 53 21 22 -23 32 -33 34 57 0
51 -52 53 21 22 -23 32 -33 -34 58 0
51 -52 53 21 22 -23 -32 33 34 0
51 -52 53 21 22 -23 -32 33 -34 0
51 -52 53 21 22 -23 -32 -33 34 54 0
51 -52 53 21 22 -23 -32 -33 -34 54 0
51 -52 53 21 -22 23 32 33 34 0
51 -52 53 21 -22 23 32 33 -34 0
51 -52 53 21 -22 23 32 -33 34 57 0
51 -52 53 21 -22 23 32 -33 -34 56 0
51 -52 53 21 -22 23 -32 33 34 0
51 -52 53 21 -22 23 -32 33 -34 0
51 -52 53 21 -22 23 -32 -33 34 54 0
51 -52 53 21 -22 23 -32 -33 -34 0
51 -52 53 21 -22 -23 32 33 34 0
51 -52 53 21 -22 -23 32 33 -34 0
51 -52 53 21 -22 -23 32 -33 34 57 0
51 -52 53 21 -22 -23 32 -33 -34 0
51 -52 53 21 -22 -23 -32 33 34 0
51 -52 53 21 -22 -23 -32 33 -34 0
51 -52 53 21 -22 -23 -32 -33 34 0
51 -52 53 21 -22 -23 -32 -33 -34 54 0
51 -52 53 -21 22 23 32 33 34 54 0
51 -52 53 -21 22 23 32 33 -34 0
51 -52 53 -21 22 23 32 -33 34 59 0
51 -52 53 -21 22 23 32 -33 -34 0
51 -52 53 -21 22 23 -32 33 34 0
51 -52 53 -21 22 23 -32 33 -34 0
51 -52 53 -21 22 23 -32 -33 34 54 0
51 -52 53 -21 22 23 -32 -33 -34 54 0
51 -52 53 -21 22 -23 32 33 34 54 0
51 -52 53 -21 22 -23 32 33 -34 57 0
51 -52 53 -21 22 -23 32 -33 34 57 0
51 -52 53 -21 22 -23 32 -33 -34 0
51 -52 53 -21 22 -23 -32 33 34 0
51 -52 53 -21 22 -23 -32 33 -34 0
51 -52 53 -21 22 -23 -32 -33 34 0
51 -52 53 -21 22 -23 -32 -33 -34 0
51 -52 53 -21 -22 23 32 33 34 54 0
51 -52 53 -21 -22 23 32 33 -34 57 0
51 -52 53 -21 -22 23 32 -33 34 57 0
51 -52 53 -21 -22 23 32 -33 -34 54 0
51 -52 53 -21 -22 23 -32 33 34 0
51 -52 53 -21 -22 23 -32 33 -34 54 0
51 -52 53 -21 -22 23 -32 -33 34 54 0
51 -52 53 -21 -22 23 -32 -33 -34 54 0
51 -52 53 -21 -22 -23 32 33 34 54 0
51 -52 53 -21 -22 -23 32 33 -34 54 0
51 -52 53 -21 -22 -23 32 -33 34 54 0
51 -52 53 -21 -22 -23 32 -33 -34 54 0
51 -52 53 -21 -22 -23 -32 33 34 0
51 -52 53 -21 -22 -23 -32 33 -34 54 0
51 -52 53 -21 -22 -23 -32 -33 34 54 0
51 -52 53 -21 -22 -23 -32 -33 -34 54 0
51 -52 -53 21 22 23 32 33 34 54 0
51 -52 -53 21 22 23 32 33 -34 54 0
51 -52 -53 21 22 23 32 -33 34 54 0
51 -52 -53 21 22 23 32 -33 -34 0
51 -52 -53 21 22 23 -32 33 34 0
51 -52 -53 21 22 23 -32 33 -34 54 0
51 -52 -53 21 22 23 -32 -33 34 54 0
51 -52 -53 21 22 23 -32 -33 -34 54 0
51 -52 -53 21 22 -23 32 33 34 54 0
51 -52 -53 21 22 -23 32 33 -34 0
51 -52 -53 21 22 -23 32 -33 34 0
51 -52 -53 21 22 -23 32 -33 -34 58 0
51 -52 -53 21 22 -23 -32 33 34 60 0
51 -52 -53 21 22 -23 -32 33 -34 0
51 -52 -53 21 22 -23 -32 -33 34 54 0
51 -52 -53 21 22 -23 -32 -33 -34 54 0
51 -52 -53 21 -22 23 32 33 34 0
51 -52 -53 21 -22 23 32 33 -34 0
51 -52 -53 21 -22 23 32 -33 34 0
51 -52 -53 21 -22 23 32 -33 -34 61 0
51 -52 -53 21 -22 23 -32 33 34 62 0
51 -52 -53 21 -22 23 -32 33 -34 0
51 -52 -53 21 -22 23 -32 -33 34 54 0
51 -52 -53 21 -22 23 -32 -33 -34 0
51 -52 -53 21 -22 -23 32 33 34 0
51 -52 -53 21 -22 -23 32 33 -34 0
51 -52 -53 21 -22 -23 32 -33 34 0
51 -52 -53 21 -22 -23 32 -33 -34 63 0
51 -52 -53 21 -22 -23 -32 33 34 0
51 -52 -53 21 -22 -23 -32 33 -34 0
51 -52 -53 21 -22 -23 -32 -33 34 0
51 -52 -53 21 -22 -23 -32 -33 -34 54 0
51 -52 -53 -21 22 23 32 33 34 54 0
51 -52 -53 -21 22 23 32 33 -34 0
51 -52 -53 -21 22 23 32 -33 34 64 0
51 -52 -53 -21 22 23 32 -33 -34 58 0
51 -52 -53 -21 22 23 -32 33 34 0
51 -52 -53 -21 22 23 -32 33 -34 0
51 -52 -53 -21 22 23 -32 -33 34 54 0
51 -52 -53 -21 22 23 -32 -33 -34 54 0
51 -52 -53 -21 22 -23 32 33 34 54 0
51 -52 -53 -21 22 -23 32 33 -34 0
51 -52 -53 -21 22 -23 32 -33 34 0
51 -52 -53 -21 22 -23 32 -33 -34 66 0
51 -52 -53 -21 22 -23 -32 33 34 0
51 -52 -53 -21 22 -23 -32 33 -34 0
51 -52 -53 -21 22 -23 -32 -33 34 0
51 -52 -53 -21 22 -23 -32 -33 -34 0
51 -52 -53 -21 -22 23 32 33 34 54 0
51 -52 -53 -21 -22 23 32 33 -34 0
51 -52 -53 -21 -22 23 32 -33 34 0
51 -52 -53 -21 -22 23 32 -33 -34 54 0
51 -52 -53 -21 -22 23 -32 33 34 0
51 -52 -53 -21 -22 23 -32 33 -34 54 0
51 -52 -53 -21 -22 23 -32 -33 34 54 0
51 -52 -53 -21 -22 23 -32 -33 -34 54 0
51 -52 -53 -21 -22 -23 32 33 34 54 0
51 -52 -53 -21 -22 -23 32 33 -34 54 0
51 -52 -53 -21 -22 -23 32 -33 34 54 0
51 -52 -53 -21 -22 -23 32 -33 -34 54 0
51 -52 -53 -21 -22 -23 -32 33 34 0
51 -52 -53 -21 -22 -23 -32 33 -34 54 0
51 -52 -53 -21 -22 -23 -32 -33 34 54 0
51 -52 -53 -21 -22 -23 -32 -33 -34 54 0
-51 52 53 21 22 23 32 33 34 54 0
-51 52 53 21 22 23 32 33 -34 54 0
-51 52 53 21 22 23 32 -33 34 54 0
-51 52 53 21 22 23 32 -33 -34 0
-51 52 53 21 22 23 -32 33 34 57 0
-51 52 53 21 22 23 -32 33 -34 54 0
-51 52 53 21 22 23 -32 -33 34 54 0
-51 52 53 21 22 23 -32 -33 -34 54 0
-51 52 53 21 22 -23 32 33 34 54 0
-51 52 53 21 22 -23 32 33 -34 0
-51 52 53 21 22 -23 32 -33 34 0
-51 52 53 21 22 -23 32 -33 -34 0
-51 52 53 21 22 -23 -32 33 34 62 0
-51 52 53 21 22 -23 -32 33 -34 0
-51 52 53 21 22 -23 -32 -33 34 54 0
-51 52 53 21 22 -23 -32 -33 -34 54 0
-51 52 53 21 -22 23 32 33 34 0
-51 52 53 21 -22 23 32 33 -34 0
-51 52 53 21 -22 23 32 -33 34 0
-51 52 53 21 -22 23 32 -33 -34 0
-51 52 53 21 -22 23 -32 33 34 60 0
-51 52 53 21 -22 23 -32 33 -34 58 0
-51 52 53 21 -22 23 -32 -33 34 54 0
-51 52 53 21 -22 23 -32 -33 -34 0
-51 52 53 21 -22 -23 32 33 34 0
-51 52 53 21 -22 -23 32 33 -34 0
-51 52 53 21 -22 -23 32 -33 34 0
-51 52 53 21 -22 -23 32 -33 -34 67 0
-51 52 53 21 -22 -23 -32 33 34 57 0
-51 52 53 21 -22 -23 -32 33 -34 0
-51 52 53 21 -22 -23 -32 -33 34 0
-51 52 53 21 -22 -23 -32 -33 -34 54 0
-51 52 53 -21 22 23 32 33 34 54 0
-51 52 53 -21 22 23 32 33 -34 0
-51 52 53 -21 22 23 32 -33 34 0
-51 52 53 -21 22 23 32 -33 -34 58 0
-51 52 53 -21 22 23 -32 33 34 60 0
-51 52 53 -21 22 23 -32 33 -34 0
-51 52 53 -21 22 23 -32 -33 34 54 0
-51 52 53 -21 22 23 -32 -33 -34 54 0
-51 52 53 -21 22 -23 32 33 34 54 0
-51 52 53 -21 22 -23 32 33 -34 0
-51 52 53 -21 22 -23 32 -33 34 0
-51 52 53 -21 22 -23 32 -33 -34 65 0
-51 52 53 -21 22 -23 -32 33 34 58 0
-51 52 53 -21 22 -23 -32 33 -34 0
-51 52 53 -21 22 -23 -32 -33 34 0
-51 52 53 -21 22 -23 -32 -33 -34 0
-51 52 53 -21 -22 23 32 33 34 54 0
-51 52 53 -21 -22 23 32 33 -34 0
-51 52 53 -21 -22 23 32 -33 34 0
-51 52 53 -21 -22 23 32 -33 -34 54 0
-51 52 53 -21 -22 23 -32 33 34 0
-51 52 53 -21 -22 23 -32 33 -34 54 0
-51 52 53 -21 -22 23 -32 -33 34 54 0
-51 52 53 -21 -22 23 -32 -33 -34 54 0
-51 52 53 -21 -22 -23 32 33 34 54 0
-51 52 53 -21 -22 -23 32 33 -34 54 0
-51 52 53 -21 -22 -23 32 -33 34 54 0
-51 52 53 -21 -22 -23 32 -33 -34 54 0
-51 52 53 -21 -22 -23 -32 33 34 0
-51 52 53 -21 -22 -23 -32 33 -34 54 0
-51 52 53 -21 -22 -23 -32 -33 34 54 0
-51 52 53 -21 -22 -23 -32 -33 -34 54 0
-51 52 -53 21 22 23 32 33 34 54 0
-51 52 -53 21 22 23 32 33 -34 54 0
-51 52 -53 21 22 23 32 -33 34 54 0
-51 52 -53 21 22 23 32 -33 -34 0
-51 52 -53 21 22 23 -32 33 34 0
-51 52 -53 21 22 23 -32 33 -34 54 0
-51 52 -53 21 22 23 -32 -33 34 54 0
-51 52 -53 21 22 23 -32 -33 -34 54 0
-51 52 -53 21 22 -23 32 33 34 54 0
-51 52 -53 21 22 -23 32 33 -34 0
-51 52 -53 21 22 -23 32 -33 34 0
-51 52 -53 21 22 -23 32 -33 -34 0
-51 52 -53 21 22 -23 -32 33 34 0
-51 52 -53 21 22 -23 -32 33 -34 57 0
-51 52 -53 21 22 -23 -32 -33 34 54 0
-51 52 -53 21 22 -23 -32 -33 -34 54 0
-51 52 -53 21 -22 23 32 33 34 0
-51 52 -53 21 -22 23 32 33 -34 0
-51 52 -53 21 -22 23 32 -33 34 0
-51 52 -53 21 -22 23 32 -33 -34 0
-51 52 -53 21 -22 23 -32 33 34 0
-51 52 -53 21 -22 23 -32 33 -34 58 0
-51 52 -53 21 -22 23 -32 -33 34 54 0
-51 52 -53 21 -22 23 -32 -33 -34 0
-51 52 -53 21 -22 -23 32 33 34 0
-51 52 -53 21 -22 -23 32 33 -34 0
-51 52 -53 21 -22 -23 32 -33 34 0
-51 52 -53 21 -22 -23 32 -33 -34 0
-51 52 -53 21 -22 -23 -32 33 34 0
-51 52 -53 21 -22 -23 -32 33 -34 57 0
-51 52 -53 21 -22 -23 -32 -33 34 0
-51 52 -53 21 -22 -23 -32 -33 -34 54 0
-51 52 -53 -21 22 23 32 33 34 54 0
-51 52 -53 -21 22 23 32 33 -34 0
-51 52 -53 -21 22 23 32 -33 34 0
-51 52 -53 -21 22 23 32 -33 -34 0
-51 52 -53 -21 22 23 -32 33 34 62 0
-51 52 -53 -21 22 23 -32 33 -34 0
-51 52 -53 -21 22 23 -32 -33 34 54 0
-51 52 -53 -21 22 23 -32 -33 -34 54 0
-51 52 -53 -21 22 -23 32 33 34 54 0
-51 52 -53 -21 22 -23 32 33 -34 0
-51 52 -53 -21 22 -23 32 -33 34 0
-51 52 -53 -21 22 -23 32 -33 -34 0
-51 52 -53 -21 22 -23 -32 33 34 58 0
-51 52 -53 -21 22 -23 -32 33 -34 57 0
-51 52 -53 -21 22 -23 -32 -33 34 0
-51 52 -53 -21 22 -23 -32 -33 -34 0
-51 52 -53 -21 -22 23 32 33 34 54 0
-51 52 -53 -21 -22 23 32 33 -34 0
-51 52 -53 -21 -22 23 32 -33 34 0
-51 52 -53 -21 -22 23 32 -33 -34 54 0
-51 52 -53 -21 -22 23 -32 33 34 57 0
-51 52 -53 -21 -22 23 -32 33 -34 54 0
-51 52 -53 -21 -22 23 -32 -33 34 54 0
-51 52 -53 -21 -22 23 -32 -33 -34 54 0
-51 52 -53 -21 -22 -23 32 33 34 54 0
-51 52 -53 -21 -22 -23 32 33 -34 54 0
-51 52 -53 -21 -22 -23 32 -33 34 54 0
-51 52 -53 -21 -22 -23 32 -33 -34 54 0
-51 52 -53 -21 -22 -23 -32 33 34 57 0
-51 52 -53 -21 -22 -23 -32 33 -34 54 0
-51 52 -53 -21 -22 -23 -32 -33 34 54 0
-51 52 -53 -21 -22 -23 -32 -33 -34 54 0
-51 -52 53 21 22 23 32 33 34 54 0
-51 -52 53 21 22 23 32 33 -34 54 0
-51 -52 53 21 22 23 32 -33 34 54 0
-51 -52 53 21 22 23 32 -33 -34 0
-51 -52 53 21 22 23 -32 33 34 0
-51 -52 53 21 22 23 -32 33 -34 54 0
-51 -52 53 21 22 23 -32 -33 34 54 0
-51 -52 53 21 22 23 -32 -33 -34 54 0
-51 -52 53 21 22 -23 32 33 34 54 0
-51 -52 53 21 22 -23 32 33 -34 0
-51 -52 53 21 22 -23 32 -33 34 0
-51 -52 53 21 22 -23 32 -33 -34 0
-51 -52 53 21 22 -23 -32 33 34 0
-51 -52 53 21 22 -23 -32 33 -34 0
-51 -52 53 21 22 -23 -32 -33 34 54 0
-51 -52 53 21 22 -23 -32 -33 -34 54 0
-51 -52 53 21 -22 23 32 33 34 0
-51 -52 53 21 -22 23 32 33 -34 0
-51 -52 53 21 -22 23 32 -33 34 0
-51 -52 53 21 -22 23 32 -33 -34 0
-51 -52 53 21 -22 23 -32 33 34 0
-51 -52 53 21 -22 23 -32 33 -34 0
-51 -52 53 21 -22 23 -32 -33 34 54 0
-51 -52 53 21 -22 23 -32 -33 -34 0
-51 -52 53 21 -22 -23 32 33 34 0
-51 -52 53 21 -22 -23 32 33 -34 0
-51 -52 53 21 -22 -23 32 -33 34 0
-51 -52 53 21 -22 -23 32 -33 -34 0
-51 -52 53 21 -22 -23 -32 33 34 0
-51 -52 53 21 -22 -23 -32 33 -34 0
-51 -52 53 21 -22 -23 -32 -33 34 0
-51 -52 53 21 -22 -23 -32 -33 -34 54 0
-51 -52 53 -21 22 23 32 33 34 54 0
-51 -52 53 -21 22 23 32 33 -34 0
-51 -52 53 -21 22 23 32 -33 34 0
-51 -52 53 -21 22 23 32 -33 -34 0
-51 -52 53 -21 22 23 -32 33 34 0
-51 -52 53 -21 22 23 -32 33 -34 57 0
-51 -52 53 -21 22 23 -32 -33 34 54 0
-51 -52 53 -21 22 23 -32 -33 -34 54 0
-51 -52 53 -21 22 -23 32 33 34 54 0
-51 -52 53 -21 22 -23 32 33 -34 0
-51 -52 53 -21 22 -23 32 -33 34 0
-51 -52 53 -21 22 -23 32 -33 -34 0
-51 -52 53 -21 22 -23 -32 33 34 0
-51 -52 53 -21 22 -23 -32 33 -34 0
-51 -52 53 -21 22 -23 -32 -33 34 57 0
-51 -52 53 -21 22 -23 -32 -33 -34 0
-51 -52 53 -21 -22 23 32 33 34 54 0
-51 -52 53 -21 -22 23 32 33 -34 0
-51 -52 53 -21 -22 23 32 -33 34 0
-51 -52 53 -21 -22 23 32 -33 -34 54 0
-51 -52 53 -21 -22 23 -32 33 34 0
-51 -52 53 -21 -22 23 -32 33 -34 54 0
-51 -52 53 -21 -22 23 -32 -33 34 54 0
-51 -52 53 -21 -22 23 -32 -33 -34 54 0
-51 -52 53 -21 -22 -23 32 33 34 54 0
-51 -52 53 -21 -22 -23 32 33 -34 54 0
-51 -52 53 -21 -22 -23 32 -33 34 54 0
-51 -52 53 -21 -22 -23 32 -33 -34 54 0
-51 -52 53 -21 -22 -23 -32 33 34 0
-51 -52 53 -21 -22 -23 -32 33 -34 54 0
-51 -52 53 -21 -22 -23 -32 -33 34 54 0
-51 -52 53 -21 -22 -23 -32 -33 -34 54 0
-51 -52 -53 21 22 23 32 33 34 54 0
-51 -52 -53 21 22 23 32 33 -34 54 0
-51 -52 -53 21 22 23 32 -33 34 54 0
-51 -52 -53 21 22 23 32 -33 -34 0
-51 -52 -53 21 22 23 -32 33 34 0
-51 -52 -53 21 22 23 -32 33 -34 54 0
-51 -52 -53 21 22 23 -32 -33 34 54 0
-51 -52 -53 21 22 23 -32 -33 -34 54 0
-51 -52 -53 21 22 -23 32 33 34 54 0
-51 -52 -53 21 22 -23 32 33 -34 0
-51 -52 -53 21 22 -23 32 -33 34 0
-51 -52 -53 21 22 -23 32 -33 -34 0
-51 -52 -53 21 22 -23 -32 33 34 0
-51 -52 -53 21 22 -23 -32 33 -34 0
-51 -52 -53 21 22 -23 -32 -33 34 54 0
-51 -52 -53 21 22 -23 -32 -33 -34 54 0
-51 -52 -53 21 -22 23 32 33 34 0
-51 -52 -53 21 -22 23 32 33 -34 0
-51 -52 -53 21 -22 23 32 -33 34 0
-51 -52 -53 21 -22 23 32 -33 -34 0
-51 -52 -53 21 -22 23 -32 33 34 0
-51 -52 -53 21 -22 23 -32 33 -34 0
-51 -52 -53 21 -22 23 -32 -33 34 54 0
-51 -52 -53 21 -22 23 -32 -33 -34 57 0
-51 -52 -53 21 -22 -23 32 33 34 0
-51 -52 -53 21 -22 -23 32 33 -34 0
-51 -52 -53 21 -22 -23 32 -33 34 0
-51 -52 -53 21 -22 -23 32 -33 -34 0
-51 -52 -53 21 -22 -23 -32 33 34 0
-51 -52 -53 21 -22 -23 -32 33 -34 0
-51 -52 -53 21 -22 -23 -32 -33 34 57 0
-51 -52 -53 21 -22 -23 -32 -33 -34 54 0
-51 -52 -53 -21 22 23 32 33 34 54 0
-51 -52 -53 -21 22 23 32 33 -34 0
-51 -52 -53 -21 22 23 32 -33 34 0
-51 -52 -53 -21 22 23 32 -33 -34 0
-51 -52 -53 -21 22 23 -32 33 34 0
-51 -52 -53 -21 22 23 -32 33 -34 0
-51 -52 -53 -21 22 23 -32 -33 34 54 0
-51 -52 -53 -21 22 23 -32 -33 -34 54 0
-51 -52 -53 -21 22 -23 32 33 34 54 0
-51 -52 -53 -21 22 -23 32 33 -34 0
-51 -52 -53 -21 22 -23 32 -33 34 0
-51 -52 -53 -21 22 -23 32 -33 -34 0
-51 -52 -53 -21 22 -23 -32 33 34 0
-51 -52 -53 -21 22 -23 -32 33 -34 0
-51 -52 -53 -21 22 -23 -32 -33 34 0
-51 -52 -53 -21 22 -23 -32 -33 -34 57 0
-51 -52 -53 -21 -22 23 32 33 34 54 0
-51 -52 -53 -21 -22 23 32 33 -34 0
-51 -52 -53 -21 -22 23 32 -33 34 0
-51 -52 -53 -21 -22 23 32 -33 -34 54 0
-51 -52 -53 -21 -22 23 -32 33 34 0
-51 -52 -53 -21 -22 23 -32 33 -34 54 0
-51 -52 -53 -21 -22 23 -32 -33 34 54 0
-51 -52 -53 -21 -22 23 -32 -33 -34 54 0
-51 -52 -53 -21 -22 -23 32 33 34 54 0
-51 -52 -53 -21 -22 -23 32 33 -34 54 0
-51 -52 -53 -21 -22 -23 32 -33 34 54 0
-51 -52 -53 -21 -22 -23 32 -33 -34 54 0
-51 -52 -53 -21 -22 -23 -32 33 34 0
-51 -52 -53 -21 -22 -23 -32 33 -34 54 0
-51 -52 -53 -21 -22 -23 -32 -33 34 54 0
-51 -52 -53 -21 -22 -23 -32 -33 -34 54 0
